&CONTROL
    calculation = "bands"
    max_seconds =  8.64000e+04
    pseudo_dir  = "C:\Users\siddh\.burai\.pseudopot"
    tprnfor     = .TRUE.
    tstress     = .TRUE.
/

&SYSTEM
    a                         =  9.84000e+00
    c                         =  2.00000e+01
    degauss                   =  1.00000e-02
    ecutrho                   =  2.25000e+02
    ecutwfc                   =  4.10000e+01
    ibrav                     = 4
    nat                       = 38
    nbnd                      = 128
    nspin                     = 2
    ntyp                      = 3
    occupations               = "smearing"
    smearing                  = "gaussian"
    starting_magnetization(1) =  0.00000e+00
/

&ELECTRONS
    conv_thr         =  1.00000e-06
    electron_maxstep = 200
    mixing_beta      =  4.00000e-01
    startingpot      = "atomic"
    startingwfc      = "atomic+random"
/

&BANDS
    lsym           = .FALSE.
    spin_component = 1
/

K_POINTS {crystal_b}
12
gG     20
M      20
K      20
gG     20
A      20
L      20
H      20
A      0
L      20
M      0
K      20
H      0

ATOMIC_SPECIES
C      12.01100  C.pbe-n-kjpaw_psl.1.0.0.UPF
O      15.99940  O.pbe-rrkjus.UPF
H       1.00794  H.pbe-rrkjus.UPF

ATOMIC_POSITIONS {crystal}
C       0.000000   0.000000   0.250000
C       0.083333   0.166667   0.250000
C       0.000000   0.250000   0.250000
C       0.083333   0.416667   0.250000
C       0.250000   0.000000   0.250000
C       0.333333   0.166667   0.250000
C       0.250000   0.250000   0.250000
C       0.333333   0.416667   0.250000
C       0.000000   0.500000   0.250000
C       0.083333   0.666667   0.250000
C       0.000000   0.750000   0.250000
C       0.083333   0.916667   0.250000
C       0.250000   0.500000   0.250000
C       0.333333   0.666667   0.250000
C       0.250000   0.750000   0.250000
C       0.333333   0.916667   0.250000
C       0.500000   0.000000   0.250000
C       0.583333   0.166667   0.250000
C       0.500000   0.250000   0.250000
C       0.583333   0.416667   0.250000
C       0.750000   0.000000   0.250000
C       0.833333   0.166667   0.250000
C       0.750000   0.250000   0.250000
C       0.833333   0.416667   0.250000
C       0.500000   0.500000   0.250000
C       0.583333   0.666667   0.250000
C       0.500000   0.750000   0.250000
C       0.583333   0.916667   0.250000
C       0.750000   0.500000   0.250000
C       0.833333   0.666667   0.250000
C       0.750000   0.750000   0.250000
C       0.833333   0.916667   0.250000
O       2.500000   2.500000   0.300000
H       2.500000   2.500000   0.350000
O       3.000000   3.000000   0.300000
H       3.000000   3.000000   0.350000
O       1.500000   2.000000   0.300000
O       2.000000   1.500000   0.300000
